Test: battleship-10-18-sat.cnf
Options: -no-inverting-opt -activity-nl-freq=1
WARNING: for repeatability, setting FPU to use double precision
============================[ Problem Statistics ]=============================
|                                                                             |
|  Number of symmetries:           13                                         |
|  Number of invertingSyms:         0                                         |
|  Number of variables:           180                                         |
|  Number of clauses:             910                                         |
|  Parse time:                   0.00 s                                       |
|                                                                             |
============================[ Search Statistics ]==============================
| Conflicts |          ORIGINAL         |          LEARNT          | Progress |
|           |    Vars  Clauses Literals |    Limit  Clauses Lit/Cl |          |
===============================================================================
|       100 |     180      910     3420 |      333      102     65 |  0.003 % |
===============================================================================
restarts              : 2
conflicts             : 163            (40750 /sec)
symconflicts          : 1              (250 /sec)
decisions             : 439            (0.00 % random) (109750 /sec)
propagations          : 2891           (722750 /sec)
sympropagations       : 7              (1750 /sec)
conflict literals     : 10340          (0.88 % deleted)
literals     : 10340          (0.88 % deleted)

HEURISTIC USAGES
random                : 0           
activity w/ lookahead : 0           
activity no lookahead : 438         
original sp           : 0           
sym count             : 0           

Memory used           : 5.00 MB
CPU time              : 0.004 s

SATISFIABLE
